
  32    4
  10   10   10   10

   0   0   0   0   0   5 2 3 4 8 9 
   8   0   1   1   1   2 14 5 
   9   0   2   4   2   4 14 13 11 10 
   7   0   7   5   3   3 12 11 7 
   4   0   1   5   7   2 11 6 
   5   1   1   0   3   3 20 13 10 
   6   6   5   7   0   3 15 14 13 
   1   4   3   5   0   3 17 16 12 
   8   2   2   3   0   2 12 11 
  10   0   4   3   3   2 16 12 
   2   5   3   0   5   4 22 18 17 15 
   8   0   5   3   5   3 22 18 15 
   1   0   7   3   5   5 31 22 19 17 16 
   6   0   3   7   5   5 31 29 20 19 16 
   2   0   5   4   2   5 31 29 28 21 19 
   8   0   5   5   3   4 28 27 24 23 
   6   3   4   0   5   3 29 26 21 
   9   0   4   7   4   3 28 25 24 
   8   3   6   3   0   3 27 24 23 
  10   3   6   4   0   2 25 23 
   9   6   0   2   3   2 30 27 
   6   3   5   0   4   2 28 26 
   9   5   0   3   6   1 26 
   2   0   4   6   4   1 26 
  10   4   4   3   0   1 27 
   8   4   0   2   5   1 32
  10   4   6   4   0   1 32
   8   5   0   3   6   1 32
   7   3   4   4   0   1 32
   7   2   5   4   0   1 32
   1   9   2   0   3   1 32
   0   0   0   0   0   0 
